c User generated cnf file
p cnf 7 27
7 6 -5 0 
6 5 -1 0 
7 4 -3 0 
1 -7 3 0 
3 7 -1 0 
2 1 -2 0 
1 -5 7 0 
-2 2 4 0 
2 -6 7 0 
-6 7 2 0 
1 2 -5 0 
5 6 -4 0 
3 3 -4 0 
3 -1 7 0 
3 6 -4 0 
2 3 -5 0 
3 -1 4 0 
4 -7 1 0 
-4 1 2 0 
7 2 -1 0 
3 3 -7 0 
-7 2 1 0 
5 1 -4 0 
7 -3 7 0 
-5 6 3 0 
-1 2 6 0 
-5 2 7 0 
